
Gurobi 13.0.0 (win64, gurobi_cl) logging started Wed Dec 17 21:29:35 2025

Set parameter LogFile to value "gurobi.log"

Gurobi 13.0.0 (win64, gurobi_cl) logging started Wed Dec 17 21:29:42 2025

Set parameter LogFile to value "gurobi.log"
